NAME : airline78.-256655776.tour
COMMENT : Length = -256655776
COMMENT : Found by LKH [Keld Helsgaun] Tue Jul 13 16:06:52 2021
TYPE : TOUR
DIMENSION : 29
TOUR_SECTION
1
10
18
13
19
17
6
3
5
21
12
14
20
7
22
27
29
23
16
24
15
28
26
25
9
2
8
4
11
-1
EOF
